p cnf 33 71
1 2 3 0
4 5 6 0
7 8 9 0
10 11 12 0
13 14 15 0
16 17 18 0
19 20 21 0
22 23 24 0
25 26 27 0
28 29 30 0
31 32 33 0
-1 -4 0
-2 -5 0
-3 -6 0
-7 -4 0
-8 -5 0
-9 -6 0
-1 -10 0
-2 -11 0
-3 -12 0
-7 -13 0
-8 -14 0
-9 -15 0
-10 -13 0
-11 -14 0
-12 -15 0
-16 -4 0
-17 -5 0
-18 -6 0
-1 -19 0
-2 -20 0
-3 -21 0
-22 -4 0
-23 -5 0
-24 -6 0
-7 -19 0
-8 -20 0
-9 -21 0
-16 -10 0
-17 -11 0
-18 -12 0
-1 -25 0
-2 -26 0
-3 -27 0
-22 -13 0
-23 -14 0
-24 -15 0
-7 -28 0
-8 -29 0
-9 -30 0
-25 -13 0
-26 -14 0
-27 -15 0
-10 -28 0
-11 -29 0
-12 -30 0
-16 -31 0
-17 -32 0
-18 -33 0
-19 -31 0
-20 -32 0
-21 -33 0
-22 -31 0
-23 -32 0
-24 -33 0
-25 -31 0
-26 -32 0
-27 -33 0
-28 -31 0
-29 -32 0
-30 -33 0
